c Result of efficient AIG-to-CNF conversion using package CNF
p cnf 505 2081
-2 3 338 340 342 0
-2 3 -338 -340 342 0
2 -342 0
2 -338 340 0
2 -3 0
2 338 -340 0
3 4 -124 0
3 -4 124 0
-3 -4 -124 0
-3 4 124 0
4 -5 120 0
4 5 -120 0
-4 5 120 0
-4 -5 -120 0
5 -442 -35 0
5 -442 -6 0
5 -6 -35 0
-5 6 35 0
-5 442 35 0
-5 442 6 0
-6 -7 -8 0
-6 7 8 0
6 7 -8 0
6 -7 8 0
7 474 -475 0
7 -474 475 0
-7 -474 -475 0
-7 474 475 0
8 -475 -476 0
8 -476 -9 0
8 -475 -9 0
-8 475 9 0
-8 476 9 0
-8 475 476 0
9 -476 -477 0
9 -477 -10 0
9 -476 -10 0
-9 476 10 0
-9 477 10 0
-9 476 477 0
10 -477 -478 0
10 -478 -11 0
10 -477 -11 0
-10 477 11 0
-10 478 11 0
-10 477 478 0
11 -478 -479 0
11 -479 -12 0
11 -478 -12 0
-11 478 12 0
-11 479 12 0
-11 478 479 0
12 -479 -480 0
12 -480 -13 0
12 -479 -13 0
-12 479 13 0
-12 480 13 0
-12 479 480 0
13 -480 -481 0
13 -481 -14 0
13 -480 -14 0
-13 480 14 0
-13 481 14 0
-13 480 481 0
14 -481 -482 0
14 -482 -15 0
14 -481 -15 0
-14 481 15 0
-14 482 15 0
-14 481 482 0
15 -482 -483 0
15 -483 -16 0
15 -482 -16 0
-15 482 16 0
-15 483 16 0
-15 482 483 0
16 -483 -484 0
16 -484 -17 0
16 -483 -17 0
-16 483 17 0
-16 484 17 0
-16 483 484 0
17 -484 -485 0
17 -485 -18 0
17 -484 -18 0
-17 484 18 0
-17 485 18 0
-17 484 485 0
18 -485 -486 0
18 -486 -19 0
18 -485 -19 0
-18 485 19 0
-18 486 19 0
-18 485 486 0
19 -486 -487 0
19 -487 -20 0
19 -486 -20 0
-19 486 20 0
-19 487 20 0
-19 486 487 0
20 -487 -488 0
20 -488 -21 0
20 -487 -21 0
-20 487 21 0
-20 488 21 0
-20 487 488 0
21 -488 -489 0
21 -489 -22 0
21 -488 -22 0
-21 488 22 0
-21 489 22 0
-21 488 489 0
22 -489 -490 0
22 -490 -23 0
22 -489 -23 0
-22 489 23 0
-22 490 23 0
-22 489 490 0
23 -490 -491 0
23 -491 -24 0
23 -490 -24 0
-23 490 24 0
-23 491 24 0
-23 490 491 0
24 -491 -492 0
24 -492 -25 0
24 -491 -25 0
-24 491 25 0
-24 492 25 0
-24 491 492 0
25 -492 -493 0
25 -493 -26 0
25 -492 -26 0
-25 492 26 0
-25 493 26 0
-25 492 493 0
26 -493 -494 0
26 -494 -27 0
26 -493 -27 0
-26 493 27 0
-26 494 27 0
-26 493 494 0
27 -494 -495 0
27 -495 -28 0
27 -494 -28 0
-27 494 28 0
-27 495 28 0
-27 494 495 0
28 -495 -496 0
28 -496 -29 0
28 -495 -29 0
-28 495 29 0
-28 496 29 0
-28 495 496 0
29 -496 -497 0
29 -497 -30 0
29 -496 -30 0
-29 496 30 0
-29 497 30 0
-29 496 497 0
30 -497 -498 0
30 -498 -31 0
30 -497 -31 0
-30 497 31 0
-30 498 31 0
-30 497 498 0
31 -498 -499 0
31 -499 -32 0
31 -498 -32 0
-31 498 32 0
-31 499 32 0
-31 498 499 0
32 -499 -500 0
32 -500 -33 0
32 -499 -33 0
-32 499 33 0
-32 500 33 0
-32 499 500 0
33 -500 -501 0
33 -501 -34 0
33 -500 -34 0
-33 500 34 0
-33 501 34 0
-33 500 501 0
34 -501 -502 0
34 -502 -503 0
34 -501 -503 -504 0
-34 501 503 0
-34 502 503 0
-34 502 504 0
-34 501 502 0
35 -443 -38 0
35 -443 -36 0
35 -36 -38 0
-35 36 38 0
-35 443 38 0
-35 443 36 0
-36 -9 -37 0
-36 9 37 0
36 9 -37 0
36 -9 37 0
37 475 -476 0
37 -475 476 0
-37 -475 -476 0
-37 475 476 0
38 -444 -41 0
38 -444 -39 0
38 -39 -41 0
-38 39 41 0
-38 444 41 0
-38 444 39 0
-39 -10 -40 0
-39 10 40 0
39 10 -40 0
39 -10 40 0
40 476 -477 0
40 -476 477 0
-40 -476 -477 0
-40 476 477 0
41 -445 -44 0
41 -445 -42 0
41 -42 -44 0
-41 42 44 0
-41 445 44 0
-41 445 42 0
-42 -11 -43 0
-42 11 43 0
42 11 -43 0
42 -11 43 0
43 477 -478 0
43 -477 478 0
-43 -477 -478 0
-43 477 478 0
44 -446 -47 0
44 -446 -45 0
44 -45 -47 0
-44 45 47 0
-44 446 47 0
-44 446 45 0
-45 -12 -46 0
-45 12 46 0
45 12 -46 0
45 -12 46 0
46 478 -479 0
46 -478 479 0
-46 -478 -479 0
-46 478 479 0
47 -447 -50 0
47 -447 -48 0
47 -48 -50 0
-47 48 50 0
-47 447 50 0
-47 447 48 0
-48 -13 -49 0
-48 13 49 0
48 13 -49 0
48 -13 49 0
49 479 -480 0
49 -479 480 0
-49 -479 -480 0
-49 479 480 0
50 -448 -53 0
50 -448 -51 0
50 -51 -53 0
-50 51 53 0
-50 448 53 0
-50 448 51 0
-51 -14 -52 0
-51 14 52 0
51 14 -52 0
51 -14 52 0
52 480 -481 0
52 -480 481 0
-52 -480 -481 0
-52 480 481 0
53 -449 -56 0
53 -449 -54 0
53 -54 -56 0
-53 54 56 0
-53 449 56 0
-53 449 54 0
-54 -15 -55 0
-54 15 55 0
54 15 -55 0
54 -15 55 0
55 481 -482 0
55 -481 482 0
-55 -481 -482 0
-55 481 482 0
56 -450 -59 0
56 -450 -57 0
56 -57 -59 0
-56 57 59 0
-56 450 59 0
-56 450 57 0
-57 -16 -58 0
-57 16 58 0
57 16 -58 0
57 -16 58 0
58 482 -483 0
58 -482 483 0
-58 -482 -483 0
-58 482 483 0
59 -451 -62 0
59 -451 -60 0
59 -60 -62 0
-59 60 62 0
-59 451 62 0
-59 451 60 0
-60 -17 -61 0
-60 17 61 0
60 17 -61 0
60 -17 61 0
61 483 -484 0
61 -483 484 0
-61 -483 -484 0
-61 483 484 0
62 -452 -65 0
62 -452 -63 0
62 -63 -65 0
-62 63 65 0
-62 452 65 0
-62 452 63 0
-63 -18 -64 0
-63 18 64 0
63 18 -64 0
63 -18 64 0
64 484 -485 0
64 -484 485 0
-64 -484 -485 0
-64 484 485 0
65 -453 -68 0
65 -453 -66 0
65 -66 -68 0
-65 66 68 0
-65 453 68 0
-65 453 66 0
-66 -19 -67 0
-66 19 67 0
66 19 -67 0
66 -19 67 0
67 485 -486 0
67 -485 486 0
-67 -485 -486 0
-67 485 486 0
68 -454 -71 0
68 -454 -69 0
68 -69 -71 0
-68 69 71 0
-68 454 71 0
-68 454 69 0
-69 -20 -70 0
-69 20 70 0
69 20 -70 0
69 -20 70 0
70 486 -487 0
70 -486 487 0
-70 -486 -487 0
-70 486 487 0
71 -455 -74 0
71 -455 -72 0
71 -72 -74 0
-71 72 74 0
-71 455 74 0
-71 455 72 0
-72 -21 -73 0
-72 21 73 0
72 21 -73 0
72 -21 73 0
73 487 -488 0
73 -487 488 0
-73 -487 -488 0
-73 487 488 0
74 -456 -77 0
74 -456 -75 0
74 -75 -77 0
-74 75 77 0
-74 456 77 0
-74 456 75 0
-75 -22 -76 0
-75 22 76 0
75 22 -76 0
75 -22 76 0
76 488 -489 0
76 -488 489 0
-76 -488 -489 0
-76 488 489 0
77 -457 -80 0
77 -457 -78 0
77 -78 -80 0
-77 78 80 0
-77 457 80 0
-77 457 78 0
-78 -23 -79 0
-78 23 79 0
78 23 -79 0
78 -23 79 0
79 489 -490 0
79 -489 490 0
-79 -489 -490 0
-79 489 490 0
80 -458 -83 0
80 -458 -81 0
80 -81 -83 0
-80 81 83 0
-80 458 83 0
-80 458 81 0
-81 -24 -82 0
-81 24 82 0
81 24 -82 0
81 -24 82 0
82 490 -491 0
82 -490 491 0
-82 -490 -491 0
-82 490 491 0
83 -459 -86 0
83 -459 -84 0
83 -84 -86 0
-83 84 86 0
-83 459 86 0
-83 459 84 0
-84 -25 -85 0
-84 25 85 0
84 25 -85 0
84 -25 85 0
85 491 -492 0
85 -491 492 0
-85 -491 -492 0
-85 491 492 0
86 -460 -89 0
86 -460 -87 0
86 -87 -89 0
-86 87 89 0
-86 460 89 0
-86 460 87 0
-87 -26 -88 0
-87 26 88 0
87 26 -88 0
87 -26 88 0
88 492 -493 0
88 -492 493 0
-88 -492 -493 0
-88 492 493 0
89 -461 -92 0
89 -461 -90 0
89 -90 -92 0
-89 90 92 0
-89 461 92 0
-89 461 90 0
-90 -27 -91 0
-90 27 91 0
90 27 -91 0
90 -27 91 0
91 493 -494 0
91 -493 494 0
-91 -493 -494 0
-91 493 494 0
92 -462 -95 0
92 -462 -93 0
92 -93 -95 0
-92 93 95 0
-92 462 95 0
-92 462 93 0
-93 -28 -94 0
-93 28 94 0
93 28 -94 0
93 -28 94 0
94 494 -495 0
94 -494 495 0
-94 -494 -495 0
-94 494 495 0
95 -463 -98 0
95 -463 -96 0
95 -96 -98 0
-95 96 98 0
-95 463 98 0
-95 463 96 0
-96 -29 -97 0
-96 29 97 0
96 29 -97 0
96 -29 97 0
97 495 -496 0
97 -495 496 0
-97 -495 -496 0
-97 495 496 0
98 -464 -101 0
98 -464 -99 0
98 -99 -101 0
-98 99 101 0
-98 464 101 0
-98 464 99 0
-99 -30 -100 0
-99 30 100 0
99 30 -100 0
99 -30 100 0
100 496 -497 0
100 -496 497 0
-100 -496 -497 0
-100 496 497 0
101 -465 -104 0
101 -465 -102 0
101 -102 -104 0
-101 102 104 0
-101 465 104 0
-101 465 102 0
-102 -31 -103 0
-102 31 103 0
102 31 -103 0
102 -31 103 0
103 497 -498 0
103 -497 498 0
-103 -497 -498 0
-103 497 498 0
104 -466 -105 0
104 -105 -107 0
104 -466 -107 0
-104 466 107 0
-104 105 107 0
-104 466 105 0
105 32 -106 0
105 -32 106 0
-105 -32 -106 0
-105 32 106 0
106 498 -499 0
106 -498 499 0
-106 -498 -499 0
-106 498 499 0
107 -467 -108 0
107 -108 -110 0
107 -467 -110 0
-107 467 110 0
-107 108 110 0
-107 467 108 0
108 33 -109 0
108 -33 109 0
-108 -33 -109 0
-108 33 109 0
109 499 -500 0
109 -499 500 0
-109 -499 -500 0
-109 499 500 0
110 -468 -111 0
110 -111 -113 0
110 -468 -113 0
-110 468 113 0
-110 111 113 0
-110 468 111 0
111 34 -112 0
111 -34 112 0
-111 -34 -112 0
-111 34 112 0
112 500 -501 0
112 -500 501 0
-112 -500 -501 0
-112 500 501 0
113 -469 -114 0
113 -114 -117 0
113 -469 -117 0
-113 469 117 0
-113 114 117 0
-113 469 114 0
114 115 -116 0
114 -115 116 0
-114 -115 -116 0
-114 115 116 0
-115 503 0
-115 502 504 0
115 -502 -503 0
115 -503 -504 0
116 501 -502 0
116 -501 502 0
-116 -501 -502 0
-116 501 502 0
117 -470 -118 0
117 -118 -119 0
117 -470 -119 0
-117 470 119 0
-117 118 119 0
-117 470 118 0
118 -502 -504 0
118 -502 503 0
118 502 -503 504 0
-118 502 -504 0
-118 -502 -503 504 0
-118 502 503 0
119 -471 -503 504 0
119 -472 503 -504 0
119 -471 503 -504 0
119 -471 -472 -503 0
-119 471 472 0
-119 471 -503 0
-119 503 504 0
-119 472 -503 -504 0
-120 -121 -122 0
-120 121 122 0
120 121 -122 0
120 -121 122 0
121 -474 -475 0
121 -475 -8 0
121 -474 -8 0
-121 474 8 0
-121 475 8 0
-121 474 475 0
122 -474 123 0
122 474 -123 0
-122 474 123 0
-122 -474 -123 0
-123 -441 -473 0
-123 441 473 0
123 441 -473 0
123 -441 473 0
124 -125 332 0
124 125 -332 0
-124 125 332 0
-124 -125 -332 0
125 -474 -126 0
125 -126 -248 0
125 -474 -248 0
-125 474 248 0
-125 126 248 0
-125 474 126 0
126 127 -159 0
126 -127 159 0
-126 -127 -159 0
-126 127 159 0
127 442 -128 0
127 -442 128 0
-127 -442 -128 0
-127 442 128 0
128 -443 -475 0
128 -475 -129 0
128 -443 -129 0
-128 443 129 0
-128 475 129 0
-128 443 475 0
129 -444 -476 0
129 -476 -130 0
129 -444 -130 0
-129 444 130 0
-129 476 130 0
-129 444 476 0
130 -445 -477 0
130 -477 -131 0
130 -445 -131 0
-130 445 131 0
-130 477 131 0
-130 445 477 0
131 -446 -478 0
131 -478 -132 0
131 -446 -132 0
-131 446 132 0
-131 478 132 0
-131 446 478 0
132 -447 -479 0
132 -479 -133 0
132 -447 -133 0
-132 447 133 0
-132 479 133 0
-132 447 479 0
133 -448 -480 0
133 -480 -134 0
133 -448 -134 0
-133 448 134 0
-133 480 134 0
-133 448 480 0
134 -449 -481 0
134 -481 -135 0
134 -449 -135 0
-134 449 135 0
-134 481 135 0
-134 449 481 0
135 -450 -482 0
135 -482 -136 0
135 -450 -136 0
-135 450 136 0
-135 482 136 0
-135 450 482 0
136 -451 -483 0
136 -483 -137 0
136 -451 -137 0
-136 451 137 0
-136 483 137 0
-136 451 483 0
137 -452 -484 0
137 -484 -138 0
137 -452 -138 0
-137 452 138 0
-137 484 138 0
-137 452 484 0
138 -453 -485 0
138 -485 -139 0
138 -453 -139 0
-138 453 139 0
-138 485 139 0
-138 453 485 0
139 -454 -486 0
139 -486 -140 0
139 -454 -140 0
-139 454 140 0
-139 486 140 0
-139 454 486 0
140 -455 -487 0
140 -487 -141 0
140 -455 -141 0
-140 455 141 0
-140 487 141 0
-140 455 487 0
141 -456 -488 0
141 -488 -142 0
141 -456 -142 0
-141 456 142 0
-141 488 142 0
-141 456 488 0
142 -457 -489 0
142 -489 -143 0
142 -457 -143 0
-142 457 143 0
-142 489 143 0
-142 457 489 0
143 -458 -490 0
143 -490 -144 0
143 -458 -144 0
-143 458 144 0
-143 490 144 0
-143 458 490 0
144 -459 -491 0
144 -491 -145 0
144 -459 -145 0
-144 459 145 0
-144 491 145 0
-144 459 491 0
145 -460 -492 0
145 -492 -146 0
145 -460 -146 0
-145 460 146 0
-145 492 146 0
-145 460 492 0
146 -461 -493 0
146 -493 -147 0
146 -461 -147 0
-146 461 147 0
-146 493 147 0
-146 461 493 0
147 -462 -494 0
147 -494 -148 0
147 -462 -148 0
-147 462 148 0
-147 494 148 0
-147 462 494 0
148 -463 -495 0
148 -495 -149 0
148 -463 -149 0
-148 463 149 0
-148 495 149 0
-148 463 495 0
149 -464 -496 0
149 -496 -150 0
149 -464 -150 0
-149 464 150 0
-149 496 150 0
-149 464 496 0
150 -465 -497 0
150 -497 -151 0
150 -465 -151 0
-150 465 151 0
-150 497 151 0
-150 465 497 0
151 -466 -498 0
151 -498 -152 0
151 -466 -152 0
-151 466 152 0
-151 498 152 0
-151 466 498 0
152 -467 -499 0
152 -499 -153 0
152 -467 -153 0
-152 467 153 0
-152 499 153 0
-152 467 499 0
153 -468 -500 0
153 -500 -154 0
153 -468 -154 0
-153 468 154 0
-153 500 154 0
-153 468 500 0
154 -469 -501 0
154 -501 -155 0
154 -469 -155 0
-154 469 155 0
-154 501 155 0
-154 469 501 0
155 -470 -502 0
155 -502 -156 0
155 -470 -156 0
-155 470 156 0
-155 502 156 0
-155 470 502 0
156 -503 -158 0
156 -157 -158 0
-156 158 0
-156 503 157 0
157 -471 -472 -504 0
-157 471 0
-157 472 0
-157 504 0
-158 471 504 0
-158 471 472 0
158 -471 0
158 -472 -504 0
159 -475 -162 0
159 -475 -160 0
159 -160 -162 0
-159 160 162 0
-159 475 162 0
-159 475 160 0
-160 -129 -161 0
-160 129 161 0
160 129 -161 0
160 -129 161 0
161 443 -475 0
161 -443 475 0
-161 -443 -475 0
-161 443 475 0
162 -476 -165 0
162 -476 -163 0
162 -163 -165 0
-162 163 165 0
-162 476 165 0
-162 476 163 0
-163 -130 -164 0
-163 130 164 0
163 130 -164 0
163 -130 164 0
164 444 -476 0
164 -444 476 0
-164 -444 -476 0
-164 444 476 0
165 -477 -168 0
165 -477 -166 0
165 -166 -168 0
-165 166 168 0
-165 477 168 0
-165 477 166 0
-166 -131 -167 0
-166 131 167 0
166 131 -167 0
166 -131 167 0
167 445 -477 0
167 -445 477 0
-167 -445 -477 0
-167 445 477 0
168 -478 -171 0
168 -478 -169 0
168 -169 -171 0
-168 169 171 0
-168 478 171 0
-168 478 169 0
-169 -132 -170 0
-169 132 170 0
169 132 -170 0
169 -132 170 0
170 446 -478 0
170 -446 478 0
-170 -446 -478 0
-170 446 478 0
171 -479 -174 0
171 -479 -172 0
171 -172 -174 0
-171 172 174 0
-171 479 174 0
-171 479 172 0
-172 -133 -173 0
-172 133 173 0
172 133 -173 0
172 -133 173 0
173 447 -479 0
173 -447 479 0
-173 -447 -479 0
-173 447 479 0
174 -480 -177 0
174 -480 -175 0
174 -175 -177 0
-174 175 177 0
-174 480 177 0
-174 480 175 0
-175 -134 -176 0
-175 134 176 0
175 134 -176 0
175 -134 176 0
176 448 -480 0
176 -448 480 0
-176 -448 -480 0
-176 448 480 0
177 -481 -180 0
177 -481 -178 0
177 -178 -180 0
-177 178 180 0
-177 481 180 0
-177 481 178 0
-178 -135 -179 0
-178 135 179 0
178 135 -179 0
178 -135 179 0
179 449 -481 0
179 -449 481 0
-179 -449 -481 0
-179 449 481 0
180 -482 -183 0
180 -482 -181 0
180 -181 -183 0
-180 181 183 0
-180 482 183 0
-180 482 181 0
-181 -136 -182 0
-181 136 182 0
181 136 -182 0
181 -136 182 0
182 450 -482 0
182 -450 482 0
-182 -450 -482 0
-182 450 482 0
183 -483 -186 0
183 -483 -184 0
183 -184 -186 0
-183 184 186 0
-183 483 186 0
-183 483 184 0
-184 -137 -185 0
-184 137 185 0
184 137 -185 0
184 -137 185 0
185 451 -483 0
185 -451 483 0
-185 -451 -483 0
-185 451 483 0
186 -484 -189 0
186 -484 -187 0
186 -187 -189 0
-186 187 189 0
-186 484 189 0
-186 484 187 0
-187 -138 -188 0
-187 138 188 0
187 138 -188 0
187 -138 188 0
188 452 -484 0
188 -452 484 0
-188 -452 -484 0
-188 452 484 0
189 -485 -192 0
189 -485 -190 0
189 -190 -192 0
-189 190 192 0
-189 485 192 0
-189 485 190 0
-190 -139 -191 0
-190 139 191 0
190 139 -191 0
190 -139 191 0
191 453 -485 0
191 -453 485 0
-191 -453 -485 0
-191 453 485 0
192 -486 -195 0
192 -486 -193 0
192 -193 -195 0
-192 193 195 0
-192 486 195 0
-192 486 193 0
-193 -140 -194 0
-193 140 194 0
193 140 -194 0
193 -140 194 0
194 454 -486 0
194 -454 486 0
-194 -454 -486 0
-194 454 486 0
195 -487 -198 0
195 -487 -196 0
195 -196 -198 0
-195 196 198 0
-195 487 198 0
-195 487 196 0
-196 -141 -197 0
-196 141 197 0
196 141 -197 0
196 -141 197 0
197 455 -487 0
197 -455 487 0
-197 -455 -487 0
-197 455 487 0
198 -488 -201 0
198 -488 -199 0
198 -199 -201 0
-198 199 201 0
-198 488 201 0
-198 488 199 0
-199 -142 -200 0
-199 142 200 0
199 142 -200 0
199 -142 200 0
200 456 -488 0
200 -456 488 0
-200 -456 -488 0
-200 456 488 0
201 -489 -204 0
201 -489 -202 0
201 -202 -204 0
-201 202 204 0
-201 489 204 0
-201 489 202 0
-202 -143 -203 0
-202 143 203 0
202 143 -203 0
202 -143 203 0
203 457 -489 0
203 -457 489 0
-203 -457 -489 0
-203 457 489 0
204 -490 -207 0
204 -490 -205 0
204 -205 -207 0
-204 205 207 0
-204 490 207 0
-204 490 205 0
-205 -144 -206 0
-205 144 206 0
205 144 -206 0
205 -144 206 0
206 458 -490 0
206 -458 490 0
-206 -458 -490 0
-206 458 490 0
207 -491 -210 0
207 -491 -208 0
207 -208 -210 0
-207 208 210 0
-207 491 210 0
-207 491 208 0
-208 -145 -209 0
-208 145 209 0
208 145 -209 0
208 -145 209 0
209 459 -491 0
209 -459 491 0
-209 -459 -491 0
-209 459 491 0
210 -492 -213 0
210 -492 -211 0
210 -211 -213 0
-210 211 213 0
-210 492 213 0
-210 492 211 0
-211 -146 -212 0
-211 146 212 0
211 146 -212 0
211 -146 212 0
212 460 -492 0
212 -460 492 0
-212 -460 -492 0
-212 460 492 0
213 -493 -216 0
213 -493 -214 0
213 -214 -216 0
-213 214 216 0
-213 493 216 0
-213 493 214 0
-214 -147 -215 0
-214 147 215 0
214 147 -215 0
214 -147 215 0
215 461 -493 0
215 -461 493 0
-215 -461 -493 0
-215 461 493 0
216 -494 -219 0
216 -494 -217 0
216 -217 -219 0
-216 217 219 0
-216 494 219 0
-216 494 217 0
-217 -148 -218 0
-217 148 218 0
217 148 -218 0
217 -148 218 0
218 462 -494 0
218 -462 494 0
-218 -462 -494 0
-218 462 494 0
219 -495 -222 0
219 -495 -220 0
219 -220 -222 0
-219 220 222 0
-219 495 222 0
-219 495 220 0
-220 -149 -221 0
-220 149 221 0
220 149 -221 0
220 -149 221 0
221 463 -495 0
221 -463 495 0
-221 -463 -495 0
-221 463 495 0
222 -496 -225 0
222 -496 -223 0
222 -223 -225 0
-222 223 225 0
-222 496 225 0
-222 496 223 0
-223 -150 -224 0
-223 150 224 0
223 150 -224 0
223 -150 224 0
224 464 -496 0
224 -464 496 0
-224 -464 -496 0
-224 464 496 0
225 -497 -228 0
225 -497 -226 0
225 -226 -228 0
-225 226 228 0
-225 497 228 0
-225 497 226 0
-226 -151 -227 0
-226 151 227 0
226 151 -227 0
226 -151 227 0
227 465 -497 0
227 -465 497 0
-227 -465 -497 0
-227 465 497 0
228 -498 -231 0
228 -498 -229 0
228 -229 -231 0
-228 229 231 0
-228 498 231 0
-228 498 229 0
-229 -152 -230 0
-229 152 230 0
229 152 -230 0
229 -152 230 0
230 466 -498 0
230 -466 498 0
-230 -466 -498 0
-230 466 498 0
231 -499 -232 0
231 -232 -234 0
231 -499 -234 0
-231 499 234 0
-231 232 234 0
-231 499 232 0
232 153 -233 0
232 -153 233 0
-232 -153 -233 0
-232 153 233 0
233 467 -499 0
233 -467 499 0
-233 -467 -499 0
-233 467 499 0
234 -500 -235 0
234 -235 -237 0
234 -500 -237 0
-234 500 237 0
-234 235 237 0
-234 500 235 0
235 154 -236 0
235 -154 236 0
-235 -154 -236 0
-235 154 236 0
236 468 -500 0
236 -468 500 0
-236 -468 -500 0
-236 468 500 0
237 -501 -238 0
237 -238 -240 0
237 -501 -240 0
-237 501 240 0
-237 238 240 0
-237 501 238 0
238 155 -239 0
238 -155 239 0
-238 -155 -239 0
-238 155 239 0
239 469 -501 0
239 -469 501 0
-239 -469 -501 0
-239 469 501 0
240 -241 -244 0
-240 241 0
-240 244 0
-241 502 242 0
241 -502 0
241 -242 0
242 156 -243 0
242 -156 243 0
-242 -156 -243 0
-242 156 243 0
243 470 -502 0
243 -470 502 0
-243 -470 -502 0
-243 470 502 0
-244 245 246 0
244 -245 0
244 -246 0
245 -502 -242 0
-245 502 0
-245 242 0
-246 471 -247 0
-246 471 503 0
-246 503 -247 0
-246 -471 504 247 0
246 -471 -503 -247 0
246 471 -503 247 0
246 -471 -504 247 0
247 -472 -504 0
-247 472 0
-247 504 0
248 -475 -249 0
248 -249 -251 0
248 -475 -251 0
-248 475 251 0
-248 249 251 0
-248 475 249 0
249 162 -250 0
249 -162 250 0
-249 -162 -250 0
-249 162 250 0
250 443 -129 0
250 -443 129 0
-250 -443 -129 0
-250 443 129 0
251 -476 -252 0
251 -252 -254 0
251 -476 -254 0
-251 476 254 0
-251 252 254 0
-251 476 252 0
252 165 -253 0
252 -165 253 0
-252 -165 -253 0
-252 165 253 0
253 444 -130 0
253 -444 130 0
-253 -444 -130 0
-253 444 130 0
254 -477 -255 0
254 -255 -257 0
254 -477 -257 0
-254 477 257 0
-254 255 257 0
-254 477 255 0
255 168 -256 0
255 -168 256 0
-255 -168 -256 0
-255 168 256 0
256 445 -131 0
256 -445 131 0
-256 -445 -131 0
-256 445 131 0
257 -478 -258 0
257 -258 -260 0
257 -478 -260 0
-257 478 260 0
-257 258 260 0
-257 478 258 0
258 171 -259 0
258 -171 259 0
-258 -171 -259 0
-258 171 259 0
259 446 -132 0
259 -446 132 0
-259 -446 -132 0
-259 446 132 0
260 -479 -261 0
260 -261 -263 0
260 -479 -263 0
-260 479 263 0
-260 261 263 0
-260 479 261 0
261 174 -262 0
261 -174 262 0
-261 -174 -262 0
-261 174 262 0
262 447 -133 0
262 -447 133 0
-262 -447 -133 0
-262 447 133 0
263 -480 -264 0
263 -264 -266 0
263 -480 -266 0
-263 480 266 0
-263 264 266 0
-263 480 264 0
264 177 -265 0
264 -177 265 0
-264 -177 -265 0
-264 177 265 0
265 448 -134 0
265 -448 134 0
-265 -448 -134 0
-265 448 134 0
266 -481 -267 0
266 -267 -269 0
266 -481 -269 0
-266 481 269 0
-266 267 269 0
-266 481 267 0
267 180 -268 0
267 -180 268 0
-267 -180 -268 0
-267 180 268 0
268 449 -135 0
268 -449 135 0
-268 -449 -135 0
-268 449 135 0
269 -482 -270 0
269 -270 -272 0
269 -482 -272 0
-269 482 272 0
-269 270 272 0
-269 482 270 0
270 183 -271 0
270 -183 271 0
-270 -183 -271 0
-270 183 271 0
271 450 -136 0
271 -450 136 0
-271 -450 -136 0
-271 450 136 0
272 -483 -273 0
272 -273 -275 0
272 -483 -275 0
-272 483 275 0
-272 273 275 0
-272 483 273 0
273 186 -274 0
273 -186 274 0
-273 -186 -274 0
-273 186 274 0
274 451 -137 0
274 -451 137 0
-274 -451 -137 0
-274 451 137 0
275 -484 -276 0
275 -276 -278 0
275 -484 -278 0
-275 484 278 0
-275 276 278 0
-275 484 276 0
276 189 -277 0
276 -189 277 0
-276 -189 -277 0
-276 189 277 0
277 452 -138 0
277 -452 138 0
-277 -452 -138 0
-277 452 138 0
278 -485 -279 0
278 -279 -281 0
278 -485 -281 0
-278 485 281 0
-278 279 281 0
-278 485 279 0
279 192 -280 0
279 -192 280 0
-279 -192 -280 0
-279 192 280 0
280 453 -139 0
280 -453 139 0
-280 -453 -139 0
-280 453 139 0
281 -486 -282 0
281 -282 -284 0
281 -486 -284 0
-281 486 284 0
-281 282 284 0
-281 486 282 0
282 195 -283 0
282 -195 283 0
-282 -195 -283 0
-282 195 283 0
283 454 -140 0
283 -454 140 0
-283 -454 -140 0
-283 454 140 0
284 -487 -285 0
284 -285 -287 0
284 -487 -287 0
-284 487 287 0
-284 285 287 0
-284 487 285 0
285 198 -286 0
285 -198 286 0
-285 -198 -286 0
-285 198 286 0
286 455 -141 0
286 -455 141 0
-286 -455 -141 0
-286 455 141 0
287 -488 -288 0
287 -288 -290 0
287 -488 -290 0
-287 488 290 0
-287 288 290 0
-287 488 288 0
288 201 -289 0
288 -201 289 0
-288 -201 -289 0
-288 201 289 0
289 456 -142 0
289 -456 142 0
-289 -456 -142 0
-289 456 142 0
290 -489 -291 0
290 -291 -293 0
290 -489 -293 0
-290 489 293 0
-290 291 293 0
-290 489 291 0
291 204 -292 0
291 -204 292 0
-291 -204 -292 0
-291 204 292 0
292 457 -143 0
292 -457 143 0
-292 -457 -143 0
-292 457 143 0
293 -490 -294 0
293 -294 -296 0
293 -490 -296 0
-293 490 296 0
-293 294 296 0
-293 490 294 0
294 207 -295 0
294 -207 295 0
-294 -207 -295 0
-294 207 295 0
295 458 -144 0
295 -458 144 0
-295 -458 -144 0
-295 458 144 0
296 -491 -297 0
296 -297 -299 0
296 -491 -299 0
-296 491 299 0
-296 297 299 0
-296 491 297 0
297 210 -298 0
297 -210 298 0
-297 -210 -298 0
-297 210 298 0
298 459 -145 0
298 -459 145 0
-298 -459 -145 0
-298 459 145 0
299 -492 -300 0
299 -300 -302 0
299 -492 -302 0
-299 492 302 0
-299 300 302 0
-299 492 300 0
300 213 -301 0
300 -213 301 0
-300 -213 -301 0
-300 213 301 0
301 460 -146 0
301 -460 146 0
-301 -460 -146 0
-301 460 146 0
302 -493 -303 0
302 -303 -305 0
302 -493 -305 0
-302 493 305 0
-302 303 305 0
-302 493 303 0
303 216 -304 0
303 -216 304 0
-303 -216 -304 0
-303 216 304 0
304 461 -147 0
304 -461 147 0
-304 -461 -147 0
-304 461 147 0
305 -494 -306 0
305 -306 -308 0
305 -494 -308 0
-305 494 308 0
-305 306 308 0
-305 494 306 0
306 219 -307 0
306 -219 307 0
-306 -219 -307 0
-306 219 307 0
307 462 -148 0
307 -462 148 0
-307 -462 -148 0
-307 462 148 0
308 -495 -309 0
308 -309 -311 0
308 -495 -311 0
-308 495 311 0
-308 309 311 0
-308 495 309 0
309 222 -310 0
309 -222 310 0
-309 -222 -310 0
-309 222 310 0
310 463 -149 0
310 -463 149 0
-310 -463 -149 0
-310 463 149 0
311 -496 -312 0
311 -312 -314 0
311 -496 -314 0
-311 496 314 0
-311 312 314 0
-311 496 312 0
312 225 -313 0
312 -225 313 0
-312 -225 -313 0
-312 225 313 0
313 464 -150 0
313 -464 150 0
-313 -464 -150 0
-313 464 150 0
314 -497 -315 0
314 -315 -317 0
314 -497 -317 0
-314 497 317 0
-314 315 317 0
-314 497 315 0
315 228 -316 0
315 -228 316 0
-315 -228 -316 0
-315 228 316 0
316 465 -151 0
316 -465 151 0
-316 -465 -151 0
-316 465 151 0
317 -498 -318 0
317 -318 -320 0
317 -498 -320 0
-317 498 320 0
-317 318 320 0
-317 498 318 0
318 231 -319 0
318 -231 319 0
-318 -231 -319 0
-318 231 319 0
319 466 -152 0
319 -466 152 0
-319 -466 -152 0
-319 466 152 0
320 -499 -321 0
320 -321 -323 0
320 -499 -323 0
-320 499 323 0
-320 321 323 0
-320 499 321 0
321 234 -322 0
321 -234 322 0
-321 -234 -322 0
-321 234 322 0
322 467 -153 0
322 -467 153 0
-322 -467 -153 0
-322 467 153 0
323 -500 -324 0
323 -324 -326 0
323 -500 -326 0
-323 500 326 0
-323 324 326 0
-323 500 324 0
324 237 -325 0
324 -237 325 0
-324 -237 -325 0
-324 237 325 0
325 468 -154 0
325 -468 154 0
-325 -468 -154 0
-325 468 154 0
326 -501 -327 0
326 -327 -329 0
326 -501 -329 0
-326 501 329 0
-326 327 329 0
-326 501 327 0
327 240 -328 0
327 -240 328 0
-327 -240 -328 0
-327 240 328 0
328 469 -155 0
328 -469 155 0
-328 -469 -155 0
-328 469 155 0
329 -502 -331 0
329 -502 -330 0
329 -330 -331 0
-329 330 331 0
-329 502 331 0
-329 502 330 0
-330 -502 242 -246 0
-330 -502 -242 246 0
-330 502 -242 -246 0
-330 502 242 246 0
330 -502 242 246 0
330 -502 -242 -246 0
330 502 -242 246 0
330 502 242 -246 0
331 -471 -503 504 0
331 471 -503 -504 0
331 471 -472 -504 0
331 -471 -472 -503 0
-331 471 504 0
-331 -471 472 -504 0
-331 -471 503 0
-331 472 503 0
-332 333 336 0
-332 -333 -336 0
332 -333 336 0
332 333 -336 0
333 -474 -159 0
333 -474 -334 0
333 -334 -159 0
-333 334 159 0
-333 474 159 0
-333 474 334 0
-334 -335 -128 0
-334 335 128 0
334 335 -128 0
334 -335 128 0
335 442 -474 0
335 -442 474 0
-335 -442 -474 0
-335 442 474 0
-336 -123 -337 0
-336 123 337 0
336 123 -337 0
336 -123 337 0
337 -442 -474 0
337 -474 -128 0
337 -442 -128 0
-337 442 128 0
-337 474 128 0
-337 442 474 0
338 35 -339 0
338 -35 339 0
-338 -35 -339 0
-338 35 339 0
339 -442 6 0
339 442 -6 0
-339 442 6 0
-339 -442 -6 0
340 248 -341 0
340 -248 341 0
-340 -248 -341 0
-340 248 341 0
341 474 -126 0
341 -474 126 0
-341 -474 -126 0
-341 474 126 0
-342 343 348 350 352 0
-342 343 -348 -350 352 0
342 -352 0
342 -348 350 0
342 -343 0
342 348 -350 0
343 344 -346 0
343 -344 346 0
-343 -344 -346 0
-343 344 346 0
344 38 -345 0
344 -38 345 0
-344 -38 -345 0
-344 38 345 0
345 -443 36 0
345 443 -36 0
-345 443 36 0
-345 -443 -36 0
346 251 -347 0
346 -251 347 0
-346 -251 -347 0
-346 251 347 0
347 475 -249 0
347 -475 249 0
-347 -475 -249 0
-347 475 249 0
348 41 -349 0
348 -41 349 0
-348 -41 -349 0
-348 41 349 0
349 -444 39 0
349 444 -39 0
-349 444 39 0
-349 -444 -39 0
350 254 -351 0
350 -254 351 0
-350 -254 -351 0
-350 254 351 0
351 476 -252 0
351 -476 252 0
-351 -476 -252 0
-351 476 252 0
-352 353 358 360 362 0
-352 353 -358 -360 362 0
352 -362 0
352 -358 360 0
352 -353 0
352 358 -360 0
353 354 -356 0
353 -354 356 0
-353 -354 -356 0
-353 354 356 0
354 44 -355 0
354 -44 355 0
-354 -44 -355 0
-354 44 355 0
355 -445 42 0
355 445 -42 0
-355 445 42 0
-355 -445 -42 0
356 257 -357 0
356 -257 357 0
-356 -257 -357 0
-356 257 357 0
357 477 -255 0
357 -477 255 0
-357 -477 -255 0
-357 477 255 0
358 47 -359 0
358 -47 359 0
-358 -47 -359 0
-358 47 359 0
359 -446 45 0
359 446 -45 0
-359 446 45 0
-359 -446 -45 0
360 260 -361 0
360 -260 361 0
-360 -260 -361 0
-360 260 361 0
361 478 -258 0
361 -478 258 0
-361 -478 -258 0
-361 478 258 0
-362 363 368 370 372 0
-362 363 -368 -370 372 0
362 -372 0
362 -368 370 0
362 -363 0
362 368 -370 0
363 364 -366 0
363 -364 366 0
-363 -364 -366 0
-363 364 366 0
364 50 -365 0
364 -50 365 0
-364 -50 -365 0
-364 50 365 0
365 -447 48 0
365 447 -48 0
-365 447 48 0
-365 -447 -48 0
366 263 -367 0
366 -263 367 0
-366 -263 -367 0
-366 263 367 0
367 479 -261 0
367 -479 261 0
-367 -479 -261 0
-367 479 261 0
368 53 -369 0
368 -53 369 0
-368 -53 -369 0
-368 53 369 0
369 -448 51 0
369 448 -51 0
-369 448 51 0
-369 -448 -51 0
370 266 -371 0
370 -266 371 0
-370 -266 -371 0
-370 266 371 0
371 480 -264 0
371 -480 264 0
-371 -480 -264 0
-371 480 264 0
-372 373 378 380 382 0
-372 373 -378 -380 382 0
372 -382 0
372 -378 380 0
372 -373 0
372 378 -380 0
373 374 -376 0
373 -374 376 0
-373 -374 -376 0
-373 374 376 0
374 56 -375 0
374 -56 375 0
-374 -56 -375 0
-374 56 375 0
375 -449 54 0
375 449 -54 0
-375 449 54 0
-375 -449 -54 0
376 269 -377 0
376 -269 377 0
-376 -269 -377 0
-376 269 377 0
377 481 -267 0
377 -481 267 0
-377 -481 -267 0
-377 481 267 0
378 59 -379 0
378 -59 379 0
-378 -59 -379 0
-378 59 379 0
379 -450 57 0
379 450 -57 0
-379 450 57 0
-379 -450 -57 0
380 272 -381 0
380 -272 381 0
-380 -272 -381 0
-380 272 381 0
381 482 -270 0
381 -482 270 0
-381 -482 -270 0
-381 482 270 0
-382 383 388 390 392 0
-382 383 -388 -390 392 0
382 -392 0
382 -388 390 0
382 -383 0
382 388 -390 0
383 384 -386 0
383 -384 386 0
-383 -384 -386 0
-383 384 386 0
384 62 -385 0
384 -62 385 0
-384 -62 -385 0
-384 62 385 0
385 -451 60 0
385 451 -60 0
-385 451 60 0
-385 -451 -60 0
386 275 -387 0
386 -275 387 0
-386 -275 -387 0
-386 275 387 0
387 483 -273 0
387 -483 273 0
-387 -483 -273 0
-387 483 273 0
388 65 -389 0
388 -65 389 0
-388 -65 -389 0
-388 65 389 0
389 -452 63 0
389 452 -63 0
-389 452 63 0
-389 -452 -63 0
390 278 -391 0
390 -278 391 0
-390 -278 -391 0
-390 278 391 0
391 484 -276 0
391 -484 276 0
-391 -484 -276 0
-391 484 276 0
-392 393 398 400 402 0
-392 393 -398 -400 402 0
392 -402 0
392 -398 400 0
392 -393 0
392 398 -400 0
393 394 -396 0
393 -394 396 0
-393 -394 -396 0
-393 394 396 0
394 68 -395 0
394 -68 395 0
-394 -68 -395 0
-394 68 395 0
395 -453 66 0
395 453 -66 0
-395 453 66 0
-395 -453 -66 0
396 281 -397 0
396 -281 397 0
-396 -281 -397 0
-396 281 397 0
397 485 -279 0
397 -485 279 0
-397 -485 -279 0
-397 485 279 0
398 71 -399 0
398 -71 399 0
-398 -71 -399 0
-398 71 399 0
399 -454 69 0
399 454 -69 0
-399 454 69 0
-399 -454 -69 0
400 284 -401 0
400 -284 401 0
-400 -284 -401 0
-400 284 401 0
401 486 -282 0
401 -486 282 0
-401 -486 -282 0
-401 486 282 0
-402 403 408 410 412 0
-402 403 -408 -410 412 0
402 -412 0
402 -408 410 0
402 -403 0
402 408 -410 0
403 404 -406 0
403 -404 406 0
-403 -404 -406 0
-403 404 406 0
404 74 -405 0
404 -74 405 0
-404 -74 -405 0
-404 74 405 0
405 -455 72 0
405 455 -72 0
-405 455 72 0
-405 -455 -72 0
406 287 -407 0
406 -287 407 0
-406 -287 -407 0
-406 287 407 0
407 487 -285 0
407 -487 285 0
-407 -487 -285 0
-407 487 285 0
408 77 -409 0
408 -77 409 0
-408 -77 -409 0
-408 77 409 0
409 -456 75 0
409 456 -75 0
-409 456 75 0
-409 -456 -75 0
410 290 -411 0
410 -290 411 0
-410 -290 -411 0
-410 290 411 0
411 488 -288 0
411 -488 288 0
-411 -488 -288 0
-411 488 288 0
-412 413 415 417 422 0
-412 -413 -415 417 422 0
412 -417 0
412 413 -415 0
412 -422 0
412 -413 415 0
413 80 -414 0
413 -80 414 0
-413 -80 -414 0
-413 80 414 0
414 -457 78 0
414 457 -78 0
-414 457 78 0
-414 -457 -78 0
415 293 -416 0
415 -293 416 0
-415 -293 -416 0
-415 293 416 0
416 489 -291 0
416 -489 291 0
-416 -489 -291 0
-416 489 291 0
417 418 -420 0
417 -418 420 0
-417 -418 -420 0
-417 418 420 0
418 83 -419 0
418 -83 419 0
-418 -83 -419 0
-418 83 419 0
419 -458 81 0
419 458 -81 0
-419 458 81 0
-419 -458 -81 0
420 296 -421 0
420 -296 421 0
-420 -296 -421 0
-420 296 421 0
421 490 -294 0
421 -490 294 0
-421 -490 -294 0
-421 490 294 0
-422 423 425 427 432 0
-422 -423 -425 427 432 0
422 -427 0
422 423 -425 0
422 -432 0
422 -423 425 0
423 86 -424 0
423 -86 424 0
-423 -86 -424 0
-423 86 424 0
424 -459 84 0
424 459 -84 0
-424 459 84 0
-424 -459 -84 0
425 299 -426 0
425 -299 426 0
-425 -299 -426 0
-425 299 426 0
426 491 -297 0
426 -491 297 0
-426 -491 -297 0
-426 491 297 0
427 428 -430 0
427 -428 430 0
-427 -428 -430 0
-427 428 430 0
428 89 -429 0
428 -89 429 0
-428 -89 -429 0
-428 89 429 0
429 -460 87 0
429 460 -87 0
-429 460 87 0
-429 -460 -87 0
430 302 -431 0
430 -302 431 0
-430 -302 -431 0
-430 302 431 0
431 492 -300 0
431 -492 300 0
-431 -492 -300 0
-431 492 300 0
-432 433 435 -437 -439 0
-432 -433 -435 -437 -439 0
-432 433 435 437 439 0
-432 -433 -435 437 439 0
432 433 -435 0
432 -433 435 0
432 437 -439 0
432 -437 439 0
433 92 -434 0
433 -92 434 0
-433 -92 -434 0
-433 92 434 0
434 -461 90 0
434 461 -90 0
-434 461 90 0
-434 -461 -90 0
435 305 -436 0
435 -305 436 0
-435 -305 -436 0
-435 305 436 0
436 493 -303 0
436 -493 303 0
-436 -493 -303 0
-436 493 303 0
437 98 -438 0
437 -98 438 0
-437 -98 -438 0
-437 98 438 0
438 -463 96 0
438 463 -96 0
-438 463 96 0
-438 -463 -96 0
439 311 -440 0
439 -311 440 0
-439 -311 -440 0
-439 311 440 0
440 495 -309 0
440 -495 309 0
-440 -495 -309 0
-440 495 309 0
-505 0
2 0

